p cnf 242 656
9 3 4 0
10 2 -9 0
11 1 -10 0
-12 -2 0
-12 -3 0
12 2 3 0
-13 -4 0
-13 12 0
13 4 -12 0
-14 -1 0
-14 13 0
14 1 -13 0
-15 1 0
-15 -13 0
15 -1 13 0
-16 -14 0
-16 -15 0
16 14 15 0
-17 1 0
-17 16 0
17 -1 -16 0
-18 4 0
-18 -12 0
18 -4 12 0
-19 -13 0
-19 -18 0
19 13 18 0
-20 1 0
-20 19 0
20 -1 -19 0
-21 -1 0
-21 4 0
21 1 -4 0
-22 -20 0
-22 -21 0
22 20 21 0
-23 2 0
-23 3 0
23 -2 -3 0
-24 -12 0
-24 -23 0
24 12 23 0
-25 1 0
-25 24 0
25 -1 -24 0
-26 -1 0
-26 3 0
26 1 -3 0
-27 -25 0
-27 -26 0
27 25 26 0
-28 -5 0
-28 -8 0
28 5 8 0
-29 -7 0
-29 28 0
29 7 -28 0
-30 -6 0
-30 29 0
30 6 -29 0
-31 6 0
-31 -29 0
31 -6 29 0
-32 -30 0
-32 -31 0
32 30 31 0
-33 6 0
-33 32 0
33 -6 -32 0
-34 2 0
-34 -33 0
34 -2 33 0
-35 27 0
-35 -34 0
35 -27 34 0
-36 22 0
-36 35 0
36 -22 -35 0
-37 -17 0
-37 36 0
37 17 -36 0
-38 -27 0
-38 34 0
38 27 -34 0
-39 -35 0
-39 -38 0
39 35 38 0
-40 37 0
-40 39 0
40 -37 -39 0
-41 7 0
-41 -28 0
41 -7 28 0
-42 -29 0
-42 -41 0
42 29 41 0
-43 6 0
-43 42 0
43 -6 -42 0
-44 -6 0
-44 7 0
44 6 -7 0
-45 -43 0
-45 -44 0
45 43 44 0
-46 2 0
-46 45 0
46 -2 -45 0
-47 27 0
-47 -46 0
47 -27 46 0
-48 2 0
-48 37 0
48 -2 -37 0
-49 -33 0
-49 -48 0
49 33 48 0
-50 33 0
-50 48 0
50 -33 -48 0
-51 -49 0
-51 -50 0
51 49 50 0
-52 -27 0
-52 46 0
52 27 -46 0
-53 51 0
-53 -52 0
53 -51 52 0
-54 -47 0
-54 -53 0
54 47 53 0
-55 22 0
-55 -54 0
55 -22 54 0
-56 -22 0
-56 54 0
56 22 -54 0
-57 40 0
-57 -56 0
57 -40 56 0
-58 -55 0
-58 -57 0
58 55 57 0
-59 -17 0
-59 -58 0
59 17 58 0
-60 -55 0
-60 -56 0
60 55 56 0
-61 59 0
-61 60 0
61 -59 -60 0
-62 -40 0
-62 -61 0
62 40 61 0
-63 40 0
-63 61 0
63 -40 -61 0
-64 -62 0
-64 -63 0
64 62 63 0
-65 5 0
-65 8 0
65 -5 -8 0
-66 -28 0
-66 -65 0
66 28 65 0
-67 6 0
-67 66 0
67 -6 -66 0
-68 -6 0
-68 8 0
68 6 -8 0
-69 -67 0
-69 -68 0
69 67 68 0
-70 2 0
-70 69 0
70 -2 -69 0
-71 27 0
-71 -70 0
71 -27 70 0
-72 2 0
-72 59 0
72 -2 -59 0
-73 45 0
-73 -72 0
73 -45 72 0
-74 -45 0
-74 72 0
74 45 -72 0
-75 -73 0
-75 -74 0
75 73 74 0
-76 -27 0
-76 70 0
76 27 -70 0
-77 75 0
-77 -76 0
77 -75 76 0
-78 -71 0
-78 -77 0
78 71 77 0
-79 22 0
-79 -78 0
79 -22 78 0
-80 -47 0
-80 -52 0
80 47 52 0
-81 59 0
-81 80 0
81 -59 -80 0
-82 -51 0
-82 -81 0
82 51 81 0
-83 51 0
-83 81 0
83 -51 -81 0
-84 -82 0
-84 -83 0
84 82 83 0
-85 -22 0
-85 78 0
85 22 -78 0
-86 84 0
-86 -85 0
86 -84 85 0
-87 -79 0
-87 -86 0
87 79 86 0
-88 17 0
-88 87 0
88 -17 -87 0
-89 -17 0
-89 -87 0
89 17 87 0
-90 -88 0
-90 -89 0
90 88 89 0
-91 64 0
-91 -90 0
91 -64 90 0
-92 2 0
-92 -5 0
92 -2 5 0
-93 27 0
-93 -92 0
93 -27 92 0
-94 64 0
-94 -88 0
94 -64 88 0
-95 -89 0
-95 -94 0
95 89 94 0
-96 2 0
-96 -95 0
96 -2 95 0
-97 69 0
-97 -96 0
97 -69 96 0
-98 -69 0
-98 96 0
98 69 -96 0
-99 -97 0
-99 -98 0
99 97 98 0
-100 -27 0
-100 92 0
100 27 -92 0
-101 99 0
-101 -100 0
101 -99 100 0
-102 -93 0
-102 -101 0
102 93 101 0
-103 22 0
-103 -102 0
103 -22 102 0
-104 -71 0
-104 -76 0
104 71 76 0
-105 -95 0
-105 104 0
105 95 -104 0
-106 -75 0
-106 -105 0
106 75 105 0
-107 75 0
-107 105 0
107 -75 -105 0
-108 -106 0
-108 -107 0
108 106 107 0
-109 -22 0
-109 102 0
109 22 -102 0
-110 108 0
-110 -109 0
110 -108 109 0
-111 -103 0
-111 -110 0
111 103 110 0
-112 -17 0
-112 -111 0
112 17 111 0
-113 -79 0
-113 -85 0
113 79 85 0
-114 -95 0
-114 113 0
114 95 -113 0
-115 -84 0
-115 -114 0
115 84 114 0
-116 84 0
-116 114 0
116 -84 -114 0
-117 -115 0
-117 -116 0
117 115 116 0
-118 17 0
-118 111 0
118 -17 -111 0
-119 117 0
-119 -118 0
119 -117 118 0
-120 -112 0
-120 -119 0
120 112 119 0
-121 -91 0
-121 120 0
121 91 -120 0
-122 2 0
-122 -121 0
122 -2 121 0
-123 5 0
-123 122 0
123 -5 -122 0
-124 -5 0
-124 -122 0
124 5 122 0
-125 -123 0
-125 -124 0
125 123 124 0
126 -2 125 0
-127 3 0
-127 -121 0
127 -3 121 0
-128 -1 0
-128 -6 0
128 1 6 0
-129 1 0
-129 6 0
129 -1 -6 0
-130 -128 0
-130 -129 0
130 128 129 0
-131 95 0
-131 121 0
131 -95 -121 0
-132 -95 0
-132 -121 0
132 95 121 0
-133 -131 0
-133 -132 0
133 131 132 0
-134 130 0
-134 133 0
134 -130 -133 0
-135 -95 0
-135 -130 0
135 95 130 0
-136 -134 0
-136 -135 0
136 134 135 0
-137 2 0
-137 -136 0
137 -2 136 0
-138 127 0
-138 137 0
138 -127 -137 0
-139 4 0
-139 -121 0
139 -4 121 0
-140 3 0
-140 -136 0
140 -3 136 0
-141 139 0
-141 140 0
141 -139 -140 0
-142 -139 0
-142 -140 0
142 139 140 0
-143 -141 0
-143 -142 0
143 141 142 0
-144 138 0
-144 143 0
144 -138 -143 0
-145 -138 0
-145 -143 0
145 138 143 0
-146 -144 0
-146 -145 0
146 144 145 0
-147 -59 0
-147 131 0
147 59 -131 0
-148 59 0
-148 -131 0
148 -59 131 0
-149 -147 0
-149 -148 0
149 147 148 0
-150 130 0
-150 149 0
150 -130 -149 0
-151 59 0
-151 -130 0
151 -59 130 0
-152 -150 0
-152 -151 0
152 150 151 0
-153 2 0
-153 -152 0
153 -2 152 0
-154 146 0
-154 153 0
154 -146 -153 0
-155 -146 0
-155 -153 0
155 146 153 0
-156 -154 0
-156 -155 0
156 154 155 0
-157 -127 0
-157 -137 0
157 127 137 0
-158 -138 0
-158 -157 0
158 138 157 0
-159 -122 0
-159 -158 0
159 122 158 0
-160 -156 0
-160 159 0
160 156 -159 0
-161 156 0
-161 -159 0
161 -156 159 0
-162 -160 0
-162 -161 0
162 160 161 0
-163 7 0
-163 162 0
163 -7 -162 0
-164 122 0
-164 158 0
164 -122 -158 0
-165 -159 0
-165 -164 0
165 159 164 0
-166 8 0
-166 165 0
166 -8 -165 0
-167 -8 0
-167 -165 0
167 8 165 0
-168 -166 0
-168 -167 0
168 166 167 0
-169 123 0
-169 168 0
169 -123 -168 0
-170 -166 0
-170 -169 0
170 166 169 0
-171 -7 0
-171 -162 0
171 7 162 0
-172 -163 0
-172 -171 0
172 163 171 0
-173 -170 0
-173 172 0
173 170 -172 0
-174 -163 0
-174 -173 0
174 163 173 0
-175 -141 0
-175 -144 0
175 141 144 0
-176 1 0
-176 -121 0
176 -1 121 0
-177 4 0
-177 -136 0
177 -4 136 0
-178 176 0
-178 177 0
178 -176 -177 0
-179 -176 0
-179 -177 0
179 176 177 0
-180 -178 0
-180 -179 0
180 178 179 0
-181 -175 0
-181 180 0
181 175 -180 0
-182 175 0
-182 -180 0
182 -175 180 0
-183 -181 0
-183 -182 0
183 181 182 0
-184 3 0
-184 -152 0
184 -3 152 0
-185 183 0
-185 184 0
185 -183 -184 0
-186 -183 0
-186 -184 0
186 183 184 0
-187 -185 0
-187 -186 0
187 185 186 0
-188 154 0
-188 187 0
188 -154 -187 0
-189 -154 0
-189 -187 0
189 154 187 0
-190 -188 0
-190 -189 0
190 188 189 0
-191 -37 0
-191 147 0
191 37 -147 0
-192 37 0
-192 -147 0
192 -37 147 0
-193 -191 0
-193 -192 0
193 191 192 0
-194 130 0
-194 193 0
194 -130 -193 0
-195 37 0
-195 -130 0
195 -37 130 0
-196 -194 0
-196 -195 0
196 194 195 0
-197 2 0
-197 -196 0
197 -2 196 0
-198 190 0
-198 197 0
198 -190 -197 0
-199 -190 0
-199 -197 0
199 190 197 0
-200 -198 0
-200 -199 0
200 198 199 0
-201 160 0
-201 -200 0
201 -160 200 0
-202 -160 0
-202 200 0
202 160 -200 0
-203 -201 0
-203 -202 0
203 201 202 0
-204 6 0
-204 203 0
204 -6 -203 0
-205 -6 0
-205 -203 0
205 6 203 0
-206 -204 0
-206 -205 0
206 204 205 0
-207 -174 0
-207 206 0
207 174 -206 0
-208 174 0
-208 -206 0
208 -174 206 0
-209 -207 0
-209 -208 0
209 207 208 0
-210 -123 0
-210 -168 0
210 123 168 0
-211 -169 0
-211 -210 0
211 169 210 0
-212 -125 0
-212 -211 0
212 125 211 0
213 -125 -211 0
-214 -212 0
-214 -213 0
-215 209 0
-215 214 0
-216 -209 0
-216 211 0
217 215 216 0
-218 27 0
-218 -217 0
219 -126 218 0
220 27 -217 0
-221 -219 0
-221 -220 0
-222 170 0
-222 -172 0
222 -170 172 0
-223 -173 0
-223 -222 0
223 173 222 0
-224 212 0
-224 -223 0
224 -212 223 0
225 212 -223 0
-226 -224 0
-226 -225 0
-227 209 0
-227 226 0
-228 -209 0
-228 223 0
229 227 228 0
-230 22 0
-230 -229 0
231 221 230 0
232 22 -229 0
-233 -231 0
-233 -232 0
234 209 -224 0
235 -209 224 0
-236 -234 0
-236 -235 0
-237 209 0
-237 236 0
-238 -17 0
-238 237 0
239 233 238 0
240 -17 237 0
-241 -239 0
-241 -240 0
-242 -11 0
-242 241 0
242 0
